20190630 167812.36 167812.36
20180515 129100.00 64000.00
20170630 80679.02 40000.00
20161231 80679.02 18270.17
20160630 80679.02 18270.17
20160510 80679.02 18270.17
20160420 66869.91 18270.17
20150630 40000.00 40000.00
